p edge 336  // Total de vértices e arestas
e 18 1
e 18 2
e 18 3
e 18 4
e 18 5
e 18 7
e 18 8
e 18 14
e 18 16
e 18 17
e 18 19
e 18 20
e 18 21
e 18 22
e 18 24
e 18 52
e 18 53
e 18 60
e 18 61
e 18 71
e 18 74
e 18 77
e 18 80
e 18 81
e 18 92
e 18 101
e 18 127
e 18 142
e 18 161
e 18 188
e 18 194
e 18 196
e 18 198
e 18 208
e 18 210
e 18 283
e 18 326
e 18 336
e 1 2
e 1 3
e 1 4
e 1 5
e 1 7
e 1 8
e 1 14
e 1 16
e 1 17
e 1 19
e 1 20
e 1 21
e 1 22
e 1 24
e 1 52
e 1 53
e 1 60
e 1 61
e 1 71
e 1 74
e 1 77
e 1 80
e 1 81
e 1 92
e 1 101
e 1 127
e 1 142
e 1 161
e 1 188
e 1 194
e 1 196
e 1 198
e 1 208
e 1 210
e 1 283
e 1 326
e 1 336
e 2 3
e 2 4
e 2 5
e 2 7
e 2 8
e 2 14
e 2 16
e 2 17
e 2 19
e 2 20
e 2 21
e 2 22
e 2 24
e 2 52
e 2 53
e 2 60
e 2 61
e 2 71
e 2 74
e 2 77
e 2 80
e 2 81
e 2 92
e 2 101
e 2 127
e 2 142
e 2 161
e 2 188
e 2 194
e 2 196
e 2 198
e 2 208
e 2 210
e 2 283
e 2 326
e 2 336
e 3 4
e 3 5
e 3 7
e 3 8
e 3 14
e 3 16
e 3 17
e 3 19
e 3 20
e 3 21
e 3 22
e 3 24
e 3 52
e 3 53
e 3 60
e 3 61
e 3 71
e 3 74
e 3 77
e 3 80
e 3 81
e 3 92
e 3 101
e 3 127
e 3 142
e 3 161
e 3 188
e 3 194
e 3 196
e 3 198
e 3 208
e 3 210
e 3 283
e 3 326
e 3 336
e 4 5
e 4 7
e 4 8
e 4 14
e 4 16
e 4 17
e 4 19
e 4 20
e 4 21
e 4 22
e 4 24
e 4 52
e 4 53
e 4 60
e 4 61
e 4 71
e 4 74
e 4 77
e 4 80
e 4 81
e 4 92
e 4 101
e 4 127
e 4 142
e 4 161
e 4 188
e 4 194
e 4 196
e 4 198
e 4 208
e 4 210
e 4 283
e 4 326
e 4 336
e 5 7
e 5 8
e 5 14
e 5 16
e 5 17
e 5 19
e 5 20
e 5 21
e 5 22
e 5 24
e 5 52
e 5 53
e 5 60
e 5 61
e 5 71
e 5 74
e 5 77
e 5 80
e 5 81
e 5 92
e 5 101
e 5 127
e 5 142
e 5 161
e 5 188
e 5 194
e 5 196
e 5 198
e 5 208
e 5 210
e 5 283
e 5 326
e 5 336
e 7 8
e 7 14
e 7 16
e 7 17
e 7 19
e 7 20
e 7 21
e 7 22
e 7 24
e 7 52
e 7 53
e 7 60
e 7 61
e 7 71
e 7 74
e 7 77
e 7 80
e 7 81
e 7 92
e 7 101
e 7 127
e 7 142
e 7 161
e 7 188
e 7 194
e 7 196
e 7 198
e 7 208
e 7 210
e 7 283
e 7 326
e 7 336
e 8 14
e 8 16
e 8 17
e 8 19
e 8 20
e 8 21
e 8 22
e 8 24
e 8 52
e 8 53
e 8 60
e 8 61
e 8 71
e 8 74
e 8 77
e 8 80
e 8 81
e 8 92
e 8 101
e 8 127
e 8 142
e 8 161
e 8 188
e 8 194
e 8 196
e 8 198
e 8 208
e 8 210
e 8 283
e 8 326
e 8 336
e 14 16
e 14 17
e 14 19
e 14 20
e 14 21
e 14 22
e 14 24
e 14 52
e 14 53
e 14 60
e 14 61
e 14 71
e 14 74
e 14 77
e 14 80
e 14 81
e 14 92
e 14 101
e 14 127
e 14 142
e 14 161
e 14 188
e 14 194
e 14 196
e 14 198
e 14 208
e 14 210
e 14 283
e 14 326
e 14 336
e 16 17
e 16 19
e 16 20
e 16 21
e 16 22
e 16 24
e 16 52
e 16 53
e 16 60
e 16 61
e 16 71
e 16 74
e 16 77
e 16 80
e 16 81
e 16 92
e 16 101
e 16 127
e 16 142
e 16 161
e 16 188
e 16 194
e 16 196
e 16 198
e 16 208
e 16 210
e 16 283
e 16 326
e 16 336
e 17 19
e 17 20
e 17 21
e 17 22
e 17 24
e 17 52
e 17 53
e 17 60
e 17 61
e 17 71
e 17 74
e 17 77
e 17 80
e 17 81
e 17 92
e 17 101
e 17 127
e 17 142
e 17 161
e 17 188
e 17 194
e 17 196
e 17 198
e 17 208
e 17 210
e 17 283
e 17 326
e 17 336
e 19 20
e 19 21
e 19 22
e 19 24
e 19 52
e 19 53
e 19 60
e 19 61
e 19 71
e 19 74
e 19 77
e 19 80
e 19 81
e 19 92
e 19 101
e 19 127
e 19 142
e 19 161
e 19 188
e 19 194
e 19 196
e 19 198
e 19 208
e 19 210
e 19 283
e 19 326
e 19 336
e 20 21
e 20 22
e 20 24
e 20 52
e 20 53
e 20 60
e 20 61
e 20 71
e 20 74
e 20 77
e 20 80
e 20 81
e 20 92
e 20 101
e 20 127
e 20 142
e 20 161
e 20 188
e 20 194
e 20 196
e 20 198
e 20 208
e 20 210
e 20 283
e 20 326
e 20 336
e 21 22
e 21 24
e 21 52
e 21 53
e 21 60
e 21 61
e 21 71
e 21 74
e 21 77
e 21 80
e 21 81
e 21 92
e 21 101
e 21 127
e 21 142
e 21 161
e 21 188
e 21 194
e 21 196
e 21 198
e 21 208
e 21 210
e 21 283
e 21 326
e 21 336
e 22 24
e 22 52
e 22 53
e 22 60
e 22 61
e 22 71
e 22 74
e 22 77
e 22 80
e 22 81
e 22 92
e 22 101
e 22 127
e 22 142
e 22 161
e 22 188
e 22 194
e 22 196
e 22 198
e 22 208
e 22 210
e 22 283
e 22 326
e 22 336
e 24 52
e 24 53
e 24 60
e 24 61
e 24 71
e 24 74
e 24 77
e 24 80
e 24 81
e 24 92
e 24 101
e 24 127
e 24 142
e 24 161
e 24 188
e 24 194
e 24 196
e 24 198
e 24 208
e 24 210
e 24 283
e 24 326
e 24 336
e 52 53
e 52 60
e 52 61
e 52 71
e 52 74
e 52 77
e 52 80
e 52 81
e 52 92
e 52 101
e 52 127
e 52 142
e 52 161
e 52 188
e 52 194
e 52 196
e 52 198
e 52 208
e 52 210
e 52 283
e 52 326
e 52 336
e 53 60
e 53 61
e 53 71
e 53 74
e 53 77
e 53 80
e 53 81
e 53 92
e 53 101
e 53 127
e 53 142
e 53 161
e 53 188
e 53 194
e 53 196
e 53 198
e 53 208
e 53 210
e 53 283
e 53 326
e 53 336
e 60 61
e 60 71
e 60 74
e 60 77
e 60 80
e 60 81
e 60 92
e 60 101
e 60 127
e 60 142
e 60 161
e 60 188
e 60 194
e 60 196
e 60 198
e 60 208
e 60 210
e 60 283
e 60 326
e 60 336
e 61 71
e 61 74
e 61 77
e 61 80
e 61 81
e 61 92
e 61 101
e 61 127
e 61 142
e 61 161
e 61 188
e 61 194
e 61 196
e 61 198
e 61 208
e 61 210
e 61 283
e 61 326
e 61 336
e 71 74
e 71 77
e 71 80
e 71 81
e 71 92
e 71 101
e 71 127
e 71 142
e 71 161
e 71 188
e 71 194
e 71 196
e 71 198
e 71 208
e 71 210
e 71 283
e 71 326
e 71 336
e 74 77
e 74 80
e 74 81
e 74 92
e 74 101
e 74 127
e 74 142
e 74 161
e 74 188
e 74 194
e 74 196
e 74 198
e 74 208
e 74 210
e 74 283
e 74 326
e 74 336
e 77 80
e 77 81
e 77 92
e 77 101
e 77 127
e 77 142
e 77 161
e 77 188
e 77 194
e 77 196
e 77 198
e 77 208
e 77 210
e 77 283
e 77 326
e 77 336
e 80 81
e 80 92
e 80 101
e 80 127
e 80 142
e 80 161
e 80 188
e 80 194
e 80 196
e 80 198
e 80 208
e 80 210
e 80 283
e 80 326
e 80 336
e 81 92
e 81 101
e 81 127
e 81 142
e 81 161
e 81 188
e 81 194
e 81 196
e 81 198
e 81 208
e 81 210
e 81 283
e 81 326
e 81 336
e 92 101
e 92 127
e 92 142
e 92 161
e 92 188
e 92 194
e 92 196
e 92 198
e 92 208
e 92 210
e 92 283
e 92 326
e 92 336
e 101 127
e 101 142
e 101 161
e 101 188
e 101 194
e 101 196
e 101 198
e 101 208
e 101 210
e 101 283
e 101 326
e 101 336
e 127 142
e 127 161
e 127 188
e 127 194
e 127 196
e 127 198
e 127 208
e 127 210
e 127 283
e 127 326
e 127 336
e 142 161
e 142 188
e 142 194
e 142 196
e 142 198
e 142 208
e 142 210
e 142 283
e 142 326
e 142 336
e 161 188
e 161 194
e 161 196
e 161 198
e 161 208
e 161 210
e 161 283
e 161 326
e 161 336
e 188 194
e 188 196
e 188 198
e 188 208
e 188 210
e 188 283
e 188 326
e 188 336
e 194 196
e 194 198
e 194 208
e 194 210
e 194 283
e 194 326
e 194 336
e 196 198
e 196 208
e 196 210
e 196 283
e 196 326
e 196 336
e 198 208
e 198 210
e 198 283
e 198 326
e 198 336
e 208 210
e 208 283
e 208 326
e 208 336
e 210 283
e 210 326
e 210 336
e 283 326
e 283 336
e 326 336

